solution status: optimal solution found
objective value:                                   15
x29                                                 1 	(obj:1)
x30                                                 1 	(obj:1)
x31                                                 1 	(obj:1)
x35                                                 1 	(obj:1)
x36                                                 1 	(obj:1)
x38                                                 1 	(obj:1)
x40                                                 1 	(obj:1)
x51                                                 1 	(obj:1)
x54                                                 1 	(obj:1)
x56                                                 1 	(obj:1)
x59                                                 1 	(obj:1)
x60                                                 1 	(obj:1)
x61                                                 1 	(obj:1)
x62                                                 1 	(obj:1)
x63                                                 1 	(obj:1)
$_23__5_y                                          20 	(obj:0)
$_23__5_z                                          22 	(obj:0)
one.thingy.devices[1].thingy.vs0_y                    6 	(obj:0)
one.thingy.devices[1].thingy.vs0_z                   20 	(obj:0)
$_18__5_y                                          22 	(obj:0)
$_18__5_z                                          17 	(obj:0)
one.thingy.devices[0].thingy.vs0_y                   10 	(obj:0)
one.thingy.devices[0].thingy.vs0_z                   22 	(obj:0)
$_24__5_y                                          17 	(obj:0)
$_24__5_z                                          23 	(obj:0)
$_21__5_y                                          15 	(obj:0)
$_21__5_z                                          23 	(obj:0)
one.thingy.devices[3].thingy.vs0_z                   20 	(obj:0)
one.thingy.devices[2].thingy.vs0_y                    3 	(obj:0)
one.thingy.devices[2].thingy.vs0_z                   20 	(obj:0)
$_20__5_z                                           2 	(obj:0)
$_25__5_y                                          13 	(obj:0)
$_25__5_z                                          23 	(obj:0)
$_19__5_y                                          22 	(obj:0)
$_19__5_z                                          19 	(obj:0)
$_22__5_y                                          23 	(obj:0)
$_22__5_z                                           8 	(obj:0)
